22
1 21
1 15
1 11
1 18
1 8
21 10
21 20
21 18
21 15
14 17
14 4
14 15
14 2
14 13
17 6
17 16
17 5
17 18
7 12
7 16
7 3
7 20
7 15
12 4
12 16
12 5
12 0
4 18
4 10
4 6
18 10
15 2
8 9
8 19
8 16
8 6
9 2
9 20
9 3
9 0
10 0
10 13
19 11
19 13
19 6
19 0
0 13
16 20
3 6
3 2
3 5
11 13
11 5
11 2
20 5
